
Gurobi 7.0.2 (linux64) logging started Mon Jun 12 11:38:48 2017

Changed value of parameter logfile to result/NEIS-20170612T0949/scenario_200000PVS30PVWE10var-cost0010.log
   Prev: gurobi.log  Default: 
Optimize a model with 1059933 rows, 937229 columns and 3979188 nonzeros
Coefficient statistics:
  Matrix range     [8e-04, 1e+05]
  Objective range  [1e+00, 1e+00]
  Bounds range     [0e+00, 0e+00]
  RHS range        [3e-03, 2e+05]

Concurrent LP optimizer: primal simplex, dual simplex, and barrier
Showing barrier log only...

Presolve removed 594694 rows and 643281 columns
Presolve time: 2.68s
Presolved: 465239 rows, 293948 columns, 1347043 nonzeros

Ordering time: 0.40s

Barrier statistics:
 Dense cols : 21
 AA' NZ     : 1.881e+06
 Factor NZ  : 6.959e+06 (roughly 400 MBytes of memory)
 Factor Ops : 1.640e+08 (less than 1 second per iteration)
 Threads    : 22

                  Objective                Residual
Iter       Primal          Dual         Primal    Dual     Compl     Time
   0   3.86366118e+11 -2.66702233e+11  9.53e+02 6.93e+03  2.20e+07     4s
   1   3.05960098e+11 -9.70794184e+10  6.99e+02 1.33e+04  7.03e+06     4s
   2   2.98697191e+11 -6.89783463e+10  6.90e+02 8.97e+03  5.68e+06     5s
   3   2.08010655e+11 -1.18030116e+11  5.44e+02 1.96e+03  5.36e+06     6s
   4   4.28434708e+10 -1.15753914e+11  8.36e+01 1.65e+02  9.57e+05     6s
   5   4.14143870e+09 -6.25363349e+10  6.26e+00 4.35e+00  1.35e+05     7s
   6   5.23658141e+08 -1.65513277e+10  3.50e-01 8.59e-07  2.49e+04     7s
   7   2.47225370e+08 -2.34339303e+09  4.76e-02 5.42e-07  3.61e+03     7s
   8   1.37662128e+08 -1.07314744e+09  8.37e-03 2.00e-07  1.68e+03     8s
   9   8.70825487e+07 -1.18247586e+08  7.88e-04 1.85e-07  2.84e+02     9s
  10   8.55295779e+07 -3.13209735e+07  7.63e-04 1.11e-07  1.61e+02     9s
  11   6.12502254e+07 -2.49430889e+07  4.95e-04 8.73e-08  1.19e+02    10s
  12   5.06870404e+07 -2.14795055e+07  3.42e-04 7.68e-08  9.97e+01    10s
  13   3.10336934e+07  1.38854475e+06  1.52e-04 4.38e-08  4.09e+01    10s
  14   2.66572168e+07  5.64087928e+06  1.16e-04 2.27e-08  2.90e+01    11s
  15   2.31486628e+07  8.19013732e+06  8.81e-05 1.47e-08  2.07e+01    11s
  16   1.88223739e+07  9.91826305e+06  5.07e-05 8.69e-09  1.23e+01    12s
  17   1.73320934e+07  1.09476838e+07  3.80e-05 6.02e-09  8.82e+00    13s
  18   1.64985014e+07  1.13610331e+07  3.05e-05 4.28e-09  7.09e+00    13s
  19   1.61179839e+07  1.16815729e+07  2.68e-05 3.46e-09  6.13e+00    14s
  20   1.51040729e+07  1.19657459e+07  1.76e-05 2.66e-09  4.33e+00    14s
  21   1.46373366e+07  1.22391722e+07  1.34e-05 2.20e-09  3.31e+00    14s
  22   1.41302200e+07  1.25195919e+07  9.09e-06 1.86e-09  2.22e+00    15s
  23   1.38180570e+07  1.26917531e+07  6.30e-06 2.10e-09  1.56e+00    15s
  24   1.36920899e+07  1.28614530e+07  5.18e-06 1.69e-09  1.15e+00    16s
  25   1.35579653e+07  1.29012813e+07  4.08e-06 1.69e-09  9.07e-01    17s
  26   1.34924334e+07  1.29226158e+07  3.55e-06 5.01e-09  7.87e-01    17s
  27   1.34436826e+07  1.29392846e+07  3.12e-06 6.17e-09  6.97e-01    17s
  28   1.33859687e+07  1.29575494e+07  2.61e-06 5.47e-09  5.92e-01    18s
  29   1.33433090e+07  1.29722803e+07  2.24e-06 6.87e-09  5.12e-01    18s
  30   1.32717494e+07  1.29908389e+07  1.63e-06 7.57e-09  3.88e-01    19s
  31   1.32405073e+07  1.30037587e+07  1.35e-06 8.79e-09  3.27e-01    19s
  32   1.32144604e+07  1.30333672e+07  1.12e-06 1.18e-08  2.50e-01    20s
  33   1.31807599e+07  1.30432608e+07  8.53e-07 1.13e-08  1.90e-01    20s
  34   1.31697125e+07  1.30485367e+07  7.66e-07 1.33e-08  1.67e-01    21s
  35   1.31546448e+07  1.30521250e+07  6.39e-07 1.33e-08  1.42e-01    21s
  36   1.31450644e+07  1.30554804e+07  5.61e-07 1.34e-08  1.24e-01    22s
  37   1.31363407e+07  1.30559592e+07  4.90e-07 1.00e-08  1.11e-01    22s
  38   1.31244669e+07  1.30624687e+07  3.91e-07 1.34e-08  8.56e-02    23s
  39   1.31152149e+07  1.30636681e+07  3.14e-07 1.20e-08  7.12e-02    23s
  40   1.31099417e+07  1.30669068e+07  2.74e-07 1.00e-08  5.94e-02    24s
  41   1.31041998e+07  1.30686215e+07  2.32e-07 1.14e-08  4.91e-02    24s
  42   1.30970809e+07  1.30696020e+07  1.75e-07 6.64e-09  3.79e-02    25s
  43   1.30944974e+07  1.30703769e+07  1.53e-07 5.88e-09  3.33e-02    25s
  44   1.30931065e+07  1.30708488e+07  1.41e-07 7.33e-09  3.07e-02    26s
  45   1.30906344e+07  1.30715421e+07  1.20e-07 1.18e-08  2.64e-02    26s
  46   1.30877233e+07  1.30722172e+07  9.57e-08 1.02e-08  2.14e-02    26s
  47   1.30856077e+07  1.30730540e+07  7.79e-08 1.09e-08  1.73e-02    27s
  48   1.30839025e+07  1.30739388e+07  6.44e-08 1.00e-08  1.38e-02    27s
  49   1.30807994e+07  1.30744761e+07  3.91e-08 6.23e-09  8.73e-03    28s
  50   1.30797609e+07  1.30748768e+07  3.06e-08 8.67e-09  6.74e-03    29s
  51   1.30788928e+07  1.30751497e+07  2.31e-08 6.93e-09  5.17e-03    29s
  52   1.30782953e+07  1.30753134e+07  1.80e-08 1.63e-09  4.12e-03    29s
  53   1.30779422e+07  1.30753756e+07  1.50e-08 4.71e-09  3.54e-03    30s
  54   1.30777971e+07  1.30754990e+07  1.39e-08 5.18e-09  3.17e-03    30s
  55   1.30776026e+07  1.30755786e+07  1.22e-08 3.90e-09  2.79e-03    31s
  56   1.30772748e+07  1.30757242e+07  9.51e-09 2.42e-09  2.14e-03    31s
  57   1.30769918e+07  1.30758429e+07  7.19e-09 1.75e-09  1.59e-03    32s
  58   1.30768516e+07  1.30758896e+07  6.07e-09 1.16e-08  1.33e-03    32s
  59   1.30767820e+07  1.30759057e+07  5.51e-09 1.38e-08  1.21e-03    33s
  60   1.30766255e+07  1.30759220e+07  4.29e-09 1.68e-08  9.72e-04    33s
  61   1.30765552e+07  1.30759430e+07  3.70e-09 8.50e-09  8.45e-04    34s
  62   1.30765295e+07  1.30759534e+07  3.48e-09 1.59e-08  7.95e-04    34s
  63   1.30764975e+07  1.30759613e+07  3.21e-09 1.71e-08  7.40e-04    34s
  64   1.30764285e+07  1.30759842e+07  2.66e-09 1.04e-08  6.14e-04    35s
  65   1.30763530e+07  1.30760138e+07  2.07e-09 7.51e-09  4.68e-04    36s
  66   1.30762589e+07  1.30760396e+07  1.32e-09 9.47e-09  3.03e-04    36s
  67   1.30762225e+07  1.30760510e+07  1.04e-09 1.08e-08  2.37e-04    37s
  68   1.30762058e+07  1.30760530e+07  9.07e-10 1.05e-08  2.11e-04    37s
  69   1.30761560e+07  1.30760728e+07  5.18e-10 4.39e-09  1.15e-04    38s
  70   1.30761513e+07  1.30760734e+07  9.50e-08 1.38e-08  1.08e-04    39s
  71   1.30761374e+07  1.30760767e+07  6.36e-07 8.24e-07  8.38e-05    40s
  72   1.30761228e+07  1.30760807e+07  4.34e-07 3.20e-07  5.81e-05    40s
  73   1.30761202e+07  1.30760826e+07  3.98e-07 2.49e-08  5.19e-05    41s
  74   1.30761171e+07  1.30760839e+07  9.14e-07 1.99e-08  4.59e-05    41s
  75   1.30761150e+07  1.30760844e+07  8.46e-07 2.59e-08  4.22e-05    42s
  76   1.30761102e+07  1.30760850e+07  6.89e-07 3.04e-08  3.48e-05    43s
  77   1.30761090e+07  1.30760853e+07  1.27e-06 3.43e-08  3.28e-05    44s
  78   1.30761090e+07  1.30760853e+07  1.27e-06 3.50e-08  3.27e-05    45s
  79   1.30761078e+07  1.30760856e+07  1.16e-06 3.22e-08  3.07e-05    45s
  80   1.30761078e+07  1.30760856e+07  1.16e-06 1.47e-09  3.07e-05    46s
  81   1.30761078e+07  1.30760856e+07  1.24e-06 1.96e-09  3.07e-05    46s
  82   1.30761078e+07  1.30760856e+07  1.24e-06 1.25e-09  3.06e-05    47s
  83   6.63323726e+11 -2.66702233e+11  2.34e+03 6.93e+03  5.31e+07    49s
  84   4.93612544e+11 -3.68949656e+11  1.53e+03 1.52e+03  1.44e+07    50s
  85   5.73198989e+10 -1.54123918e+11  6.26e+00 2.34e+01  3.45e+05    51s
  86   1.47653608e+09 -1.45800787e+10  7.69e-02 7.78e-05  2.25e+04    52s
  87   2.05595053e+08 -4.03778526e+08  1.75e-04 1.98e-05  8.42e+02    53s
  88   8.59489898e+07 -3.26756766e+07  3.32e-05 1.96e-06  1.64e+02    54s
  89   5.81161255e+07 -1.59841069e+07  7.44e-06 1.38e-06  1.02e+02    55s
  90   3.49527146e+07 -1.21776802e+06  3.56e-06 4.15e-07  4.99e+01    55s
  91   2.40739944e+07  4.19793178e+06  1.85e-06 2.15e-07  2.74e+01    56s
  92   2.23002808e+07  6.87556274e+06  1.55e-06 1.40e-07  2.13e+01    56s
  93   1.94361058e+07  8.52426987e+06  1.07e-06 1.01e-07  1.51e+01    57s
  94   1.84290758e+07  9.55226260e+06  9.03e-07 7.50e-08  1.23e+01    57s
  95   1.79336739e+07  1.05798712e+07  8.19e-07 5.12e-08  1.02e+01    57s
  96   1.67279177e+07  1.12861914e+07  6.16e-07 3.44e-08  7.51e+00    58s
  97   1.66265624e+07  1.15068298e+07  5.94e-07 2.95e-08  7.07e+00    58s
  98   1.59867372e+07  1.20110080e+07  4.92e-07 1.85e-08  5.49e+00    59s
  99   1.55293810e+07  1.21543124e+07  4.09e-07 1.59e-08  4.66e+00    59s
 100   1.49048885e+07  1.23034263e+07  3.05e-07 1.28e-08  3.59e+00    59s
 101   1.44322053e+07  1.24323190e+07  2.29e-07 1.03e-08  2.76e+00    60s
 102   1.41149577e+07  1.25283733e+07  1.74e-07 8.77e-09  2.19e+00    60s
 103   1.38804131e+07  1.26335954e+07  1.34e-07 6.91e-09  1.72e+00    61s
 104   1.37424662e+07  1.27350630e+07  1.12e-07 5.59e-09  1.39e+00    61s
 105   1.36016227e+07  1.27951628e+07  8.76e-08 4.25e-09  1.11e+00    61s
 106   1.35264385e+07  1.28187743e+07  7.47e-08 5.30e-09  9.77e-01    62s
 107   1.35016118e+07  1.28380964e+07  7.04e-08 6.17e-09  9.16e-01    62s
 108   1.34610472e+07  1.28638922e+07  6.35e-08 5.94e-09  8.25e-01    63s
 109   1.34202822e+07  1.28924574e+07  5.69e-08 7.51e-09  7.29e-01    63s
 110   1.33946392e+07  1.29035509e+07  5.27e-08 1.02e-08  6.78e-01    63s
 111   1.33289189e+07  1.29202377e+07  4.14e-08 7.28e-09  5.64e-01    64s
 112   1.32839115e+07  1.29371135e+07  3.38e-08 1.04e-08  4.79e-01    64s
 113   1.32437754e+07  1.29583611e+07  2.70e-08 8.09e-09  3.94e-01    65s
 114   1.32371947e+07  1.29750469e+07  2.59e-08 8.96e-09  3.62e-01    65s
 115   1.32293873e+07  1.29821458e+07  2.46e-08 9.43e-09  3.41e-01    65s
 116   1.32015717e+07  1.29948534e+07  2.00e-08 1.05e-08  2.85e-01    66s
 117   1.31820577e+07  1.30062674e+07  1.68e-08 1.37e-08  2.43e-01    66s
 118   1.31699689e+07  1.30161651e+07  1.48e-08 1.29e-08  2.12e-01    67s
 119   1.31475111e+07  1.30279959e+07  1.11e-08 1.11e-08  1.65e-01    67s
 120   1.31350518e+07  1.30353377e+07  9.10e-09 1.33e-08  1.38e-01    67s
 121   1.31248144e+07  1.30425769e+07  7.46e-09 1.11e-08  1.14e-01    68s
 122   1.31234999e+07  1.30509458e+07  7.26e-09 1.31e-08  1.00e-01    68s
 123   1.31168002e+07  1.30527911e+07  6.20e-09 1.07e-08  8.84e-02    68s
 124   1.31084967e+07  1.30567153e+07  4.90e-09 8.21e-09  7.15e-02    69s
 125   1.31062297e+07  1.30607651e+07  4.54e-09 1.02e-08  6.28e-02    69s
 126   1.31050918e+07  1.30616589e+07  4.37e-09 8.61e-09  6.00e-02    70s
 127   1.31022811e+07  1.30634100e+07  3.93e-09 5.76e-09  5.37e-02    70s
 128   1.30996911e+07  1.30652232e+07  3.53e-09 6.81e-09  4.76e-02    70s
 129   1.30969196e+07  1.30672005e+07  3.11e-09 4.37e-09  4.10e-02    71s
 130   1.30945453e+07  1.30688359e+07  2.74e-09 1.05e-08  3.55e-02    71s
 131   1.30913454e+07  1.30695731e+07  2.25e-09 1.10e-08  3.01e-02    72s
 132   1.30899365e+07  1.30706856e+07  2.04e-09 1.19e-08  2.66e-02    72s
 133   1.30877737e+07  1.30713736e+07  1.72e-09 1.07e-08  2.26e-02    72s
 134   1.30858270e+07  1.30722890e+07  1.43e-09 1.12e-08  1.87e-02    73s
 135   1.30843944e+07  1.30728544e+07  1.21e-09 6.17e-09  1.59e-02    73s
 136   1.30828151e+07  1.30730773e+07  9.96e-10 7.57e-09  1.34e-02    74s
 137   1.30818061e+07  1.30737429e+07  8.46e-10 5.30e-09  1.11e-02    74s
 138   1.30813833e+07  1.30738848e+07  7.87e-10 3.38e-09  1.04e-02    74s
 139   1.30806663e+07  1.30742876e+07  7.01e-10 4.80e-10  8.81e-03    75s
 140   1.30798194e+07  1.30747699e+07  5.66e-10 1.19e-08  6.97e-03    75s
 141   1.30789716e+07  1.30750848e+07  4.85e-10 2.62e-08  5.37e-03    76s
 142   1.30785779e+07  1.30752013e+07  4.08e-10 3.29e-08  4.66e-03    76s
 143   1.30784813e+07  1.30752886e+07  3.90e-10 2.54e-08  4.41e-03    76s
 144   1.30779442e+07  1.30754806e+07  3.69e-10 4.07e-09  3.40e-03    77s
 145   1.30776711e+07  1.30755573e+07  4.46e-10 5.65e-09  2.92e-03    77s
 146   1.30772296e+07  1.30757030e+07  5.73e-10 6.30e-09  2.11e-03    78s
 147   1.30771790e+07  1.30758200e+07  5.47e-10 6.25e-09  1.88e-03    78s
 148   1.30769477e+07  1.30758916e+07  4.31e-10 4.62e-09  1.46e-03    79s
 149   1.30768936e+07  1.30759100e+07  4.04e-10 4.11e-09  1.36e-03    79s
 150   1.30768416e+07  1.30759240e+07  3.78e-10 3.90e-09  1.27e-03    80s
 151   1.30766905e+07  1.30759493e+07  3.00e-10 3.18e-09  1.02e-03    80s
 152   1.30766028e+07  1.30759685e+07  2.55e-10 2.83e-09  8.76e-04    81s
 153   1.30764641e+07  1.30760055e+07  1.84e-10 1.86e-09  6.33e-04    82s
 154   1.30763819e+07  1.30760293e+07  1.43e-10 1.64e-09  4.87e-04    83s
 155   1.30762927e+07  1.30760410e+07  1.00e-10 1.39e-09  3.48e-04    84s
 156   1.30762678e+07  1.30760485e+07  8.83e-11 8.22e-10  3.03e-04    84s
 157   1.30762546e+07  1.30760542e+07  8.15e-11 8.44e-10  2.77e-04    85s
 158   1.30762442e+07  1.30760631e+07  7.63e-11 6.55e-10  2.50e-04    86s
 159   1.30761424e+07  1.30760686e+07  3.48e-11 2.18e-10  1.02e-04    87s
 160   1.30761352e+07  1.30760706e+07  5.97e-07 1.87e-07  8.93e-05    87s
 161   1.30761305e+07  1.30760764e+07  7.80e-07 9.16e-07  7.47e-05    88s
 162   1.30761237e+07  1.30760815e+07  6.48e-07 2.11e-08  5.84e-05    89s
 163   1.30761218e+07  1.30760825e+07  6.03e-07 1.60e-08  5.44e-05    89s
 164   1.30761150e+07  1.30760832e+07  4.77e-07 1.21e-08  4.40e-05    90s
 165   1.30761125e+07  1.30760839e+07  4.30e-07 3.19e-09  3.95e-05    91s
 166   1.30761117e+07  1.30760843e+07  5.13e-07 4.66e-09  3.77e-05    92s
 167   1.30761113e+07  1.30760844e+07  5.90e-07 3.93e-09  3.72e-05    92s
 168   1.30761102e+07  1.30760849e+07  5.61e-07 4.60e-09  3.49e-05    93s
 169   1.30761102e+07  1.30760849e+07  1.34e-06 5.24e-09  3.49e-05    94s
 170   1.30761102e+07  1.30760849e+07  1.47e-06 3.64e-09  3.49e-05    94s
 171   1.30761102e+07  1.30760849e+07  1.49e-06 8.73e-10  3.49e-05    95s
 172   1.30761102e+07  1.30760850e+07  1.48e-06 1.05e-09  3.49e-05    96s
 173   1.30761102e+07  1.30760850e+07  1.48e-06 1.02e-10  3.49e-05    97s
 174   1.30761058e+07  1.30760855e+07  1.17e-06 8.73e-10  2.80e-05    98s
 175   1.30761058e+07  1.30760855e+07  1.06e-06 5.97e-10  2.80e-05    99s
 176   1.30761058e+07  1.30760855e+07  1.06e-06 3.35e-10  2.80e-05   100s
 177   1.30761058e+07  1.30760855e+07  9.82e-07 1.16e-10  2.79e-05   101s
 178   1.30761041e+07  1.30760858e+07  8.82e-07 6.40e-10  2.53e-05   102s
 179   1.30761041e+07  1.30760858e+07  8.81e-07 2.18e-11  2.53e-05   102s
 180   1.30761041e+07  1.30760858e+07  8.81e-07 4.95e-10  2.53e-05   103s
 181   1.30761041e+07  1.30760858e+07  8.79e-07 4.37e-11  2.52e-05   104s
 182   1.30761040e+07  1.30760858e+07  1.06e-06 3.49e-10  2.52e-05   105s
 183   1.30761040e+07  1.30760858e+07  1.06e-06 1.75e-10  2.52e-05   106s
 184   1.30761040e+07  1.30760858e+07  1.06e-06 1.75e-10  2.52e-05   107s

Barrier performed 184 iterations in 106.55 seconds
Sub-optimal termination - objective 1.30761102e+07

Crossover log...

  182670 DPushes remaining with DInf 0.0000000e+00               107s
   52378 DPushes remaining with DInf 0.0000000e+00               110s
   44190 DPushes remaining with DInf 0.0000000e+00               115s
   38494 DPushes remaining with DInf 0.0000000e+00               120s
   33510 DPushes remaining with DInf 0.0000000e+00               125s
   29594 DPushes remaining with DInf 0.0000000e+00               130s
   22474 DPushes remaining with DInf 0.0000000e+00               135s
   16778 DPushes remaining with DInf 0.0000000e+00               140s
   10726 DPushes remaining with DInf 0.0000000e+00               145s
    5545 DPushes remaining with DInf 0.0000000e+00               150s
    3759 DPushes remaining with DInf 0.0000000e+00               155s
     562 DPushes remaining with DInf 0.0000000e+00               160s
       0 DPushes remaining with DInf 1.4217551e-09               160s

  168916 PPushes remaining with PInf 2.0325140e-02               160s
       0 PPushes remaining with PInf 0.0000000e+00               164s

  Push phase complete: Pinf 0.0000000e+00, Dinf 7.2624245e+03    164s

Iteration    Objective       Primal Inf.    Dual Inf.      Time
  350741    1.3076089e+07   0.000000e+00   7.262425e+03    164s
  351449    1.3076089e+07   0.000000e+00   0.000000e+00    166s

Solved with barrier
Solved in 351449 iterations and 165.66 seconds
Optimal objective  1.307608922e+07
